c uprop, v00.0, 
c reading from data/prog272.c.cnf
c done reading: 0.004164
p cnf 143 553
-49 -67 0
-49 -63 0
49 63 67 0
-44 63 67 0
-44 -63 -67 0
44 63 -67 0
44 -63 67 0
49 -59 0
-58 -59 0
-49 58 59 0
-49 -54 58 0
49 -54 -58 0
49 54 58 0
-49 54 -58 0
-50 59 0
-48 -50 0
48 50 -59 0
-46 48 -59 0
-46 -48 59 0
46 48 59 0
46 -48 -59 0
-45 50 0
-43 -45 0
43 45 -50 0
43 -50 -64 0
-43 50 -64 0
43 50 64 0
-43 -50 64 0
45 -68 0
-61 -68 0
-45 61 68 0
-45 61 -70 0
45 -61 -70 0
45 61 70 0
-45 -61 70 0
68 -72 0
-56 -72 0
56 -68 72 0
56 -68 -74 0
-56 68 -74 0
56 68 74 0
-56 -68 74 0
72 -76 0
-52 -76 0
52 -72 76 0
52 -72 -78 0
-52 72 -78 0
52 72 78 0
-52 -72 78 0
58 -80 0
67 -80 0
-58 -67 80 0
-58 -67 -82 0
58 67 -82 0
-58 67 82 0
58 -67 82 0
-48 -63 84 0
-48 -80 84 0
-63 -80 84 0
48 63 -84 0
48 80 -84 0
63 80 -84 0
48 -84 -86 0
63 -84 -86 0
80 -84 -86 0
-48 84 86 0
-63 84 86 0
-80 84 86 0
-48 -63 -80 86 0
48 63 80 -86 0
-43 -58 88 0
-43 -84 88 0
-58 -84 88 0
43 58 -88 0
43 84 -88 0
58 84 -88 0
43 -88 -90 0
58 -88 -90 0
84 -88 -90 0
-43 88 90 0
-58 88 90 0
-84 88 90 0
-43 -58 -84 90 0
43 58 84 -90 0
-48 -61 92 0
-61 -88 92 0
-48 -88 92 0
48 61 -92 0
61 88 -92 0
48 88 -92 0
-40 61 -92 0
-40 48 -92 0
-40 88 -92 0
40 -61 92 0
40 -48 92 0
40 -88 92 0
40 -48 -61 -88 0
-40 48 61 88 0
38 -43 -56 0
38 -56 -92 0
38 -43 -92 0
-38 43 56 0
-38 56 92 0
-38 43 92 0
-36 -38 56 0
-36 -38 43 0
-36 -38 92 0
36 38 -56 0
36 38 -43 0
36 38 -92 0
36 -43 -56 -92 0
-36 43 56 92 0
35 -52 -61 0
35 -38 -52 0
35 -38 -61 0
-35 52 61 0
-35 38 52 0
-35 38 61 0
-34 -35 52 0
-34 -35 61 0
-34 -35 38 0
34 35 -52 0
34 35 -61 0
34 35 -38 0
34 -38 -52 -61 0
-34 38 52 61 0
-33 56 0
-33 35 0
33 -35 -56 0
-35 -56 -66 0
35 56 -66 0
35 -56 66 0
-35 56 66 0
52 -62 0
33 -62 0
-33 -52 62 0
-33 -52 -57 0
33 52 -57 0
33 -52 57 0
-33 52 57 0
40 -47 0
-47 67 0
-40 47 -67 0
-40 -42 -67 0
40 -42 67 0
-40 42 67 0
40 42 -67 0
-36 60 -63 0
-36 -47 60 0
-47 60 -63 0
36 -60 63 0
36 47 -60 0
47 -60 63 0
36 -55 -60 0
-55 -60 63 0
47 -55 -60 0
-36 55 60 0
55 60 -63 0
-47 55 60 0
-36 -47 55 -63 0
36 47 -55 63 0
-34 51 -58 0
-34 51 -60 0
51 -58 -60 0
34 -51 58 0
34 -51 60 0
-51 58 60 0
-32 34 -51 0
-32 -51 58 0
-32 -51 60 0
32 -34 51 0
32 51 -58 0
32 51 -60 0
32 -34 -58 -60 0
-32 34 58 60 0
31 -48 -66 0
31 -51 -66 0
31 -48 -51 0
-31 48 66 0
-31 51 66 0
-31 48 51 0
31 -66 0
31 -48 0
31 -51 0
-48 -51 -66 0
30 -43 -57 0
30 -31 -57 0
30 -31 -43 0
-30 43 57 0
-30 31 57 0
-30 31 43 0
30 -57 0
30 -43 0
30 -31 0
-31 -43 -57 0
29 -61 -62 0
29 -30 -62 0
29 -30 -61 0
-29 61 62 0
-29 30 62 0
-29 30 61 0
29 -62 0
29 -61 0
29 -30 0
-30 -61 -62 0
-28 56 0
-28 29 0
28 -29 -56 0
29 -56 0
-29 56 0
-28 -52 0
28 -52 0
-28 52 0
-27 -67 0
-27 -63 0
27 63 67 0
-26 63 67 0
-26 -63 -67 0
26 63 -67 0
26 -63 67 0
-25 27 0
-25 -82 0
25 -27 82 0
-24 -27 82 0
-24 27 -82 0
24 27 82 0
24 -27 -82 0
-23 25 0
-23 -86 0
23 -25 86 0
-22 -25 86 0
-22 25 -86 0
22 25 86 0
22 -25 -86 0
-21 23 0
-21 -90 0
21 -23 90 0
-20 -23 90 0
-20 23 -90 0
20 23 90 0
20 -23 -90 0
-19 21 0
-19 -42 0
19 -21 42 0
-18 -21 42 0
-18 21 -42 0
18 21 42 0
18 -21 -42 0
-17 19 0
-17 -55 0
17 -19 55 0
-19 55 -94 0
19 -55 -94 0
19 55 94 0
-19 -55 94 0
17 -95 0
-32 -95 0
-17 32 95 0
-17 32 -96 0
17 -32 -96 0
17 32 96 0
-17 -32 96 0
95 -97 0
-95 97 0
-95 -98 0
95 98 0
97 -99 0
-97 99 0
-97 -100 0
97 100 0
99 -101 0
-99 101 0
-99 -102 0
99 102 0
101 -103 0
-101 103 0
-101 -104 0
101 104 0
103 -105 0
-103 105 0
-103 -106 0
103 106 0
105 -107 0
-105 107 0
-105 -108 0
105 108 0
-109 -111 0
-111 -112 0
109 111 112 0
109 112 -114 0
-109 -112 -114 0
-109 112 114 0
109 -112 114 0
111 -115 0
-115 -116 0
-111 115 116 0
-111 116 -118 0
111 -116 -118 0
111 116 118 0
-111 -116 118 0
115 -119 0
-115 119 0
-115 -120 0
115 120 0
119 -121 0
-119 121 0
-119 -122 0
119 122 0
121 -123 0
-121 123 0
-121 -124 0
121 124 0
123 -125 0
-123 125 0
-123 -126 0
123 126 0
125 -127 0
-125 127 0
-125 -128 0
125 128 0
112 -129 0
109 -129 0
-109 -112 129 0
-109 -112 -130 0
109 112 -130 0
109 -112 130 0
-109 112 130 0
-112 -116 131 0
-116 -129 131 0
-112 -129 131 0
112 116 -131 0
116 129 -131 0
112 129 -131 0
116 -131 -132 0
112 -131 -132 0
129 -131 -132 0
-116 131 132 0
-112 131 132 0
-129 131 132 0
-112 -116 -129 132 0
112 116 129 -132 0
-116 -131 133 0
116 -133 0
131 -133 0
116 131 -133 0
-133 -134 0
116 -133 -134 0
131 -133 -134 0
-116 133 134 0
-131 133 134 0
116 131 -134 0
-133 135 0
133 -135 0
-53 135 0
-53 109 0
53 -109 -135 0
-109 -110 -135 0
109 -110 135 0
109 110 -135 0
-109 110 135 0
-53 -112 113 0
112 -113 0
53 -113 0
53 112 -113 0
-113 -117 0
112 -113 -117 0
53 -113 -117 0
-112 113 117 0
-53 113 117 0
53 112 -117 0
-113 -116 136 0
116 -136 0
113 -136 0
113 116 -136 0
-136 -137 0
116 -136 -137 0
113 -136 -137 0
-116 136 137 0
-113 136 137 0
113 116 -137 0
-136 138 0
136 -138 0
117 -139 0
109 -139 0
-109 -117 139 0
-109 -117 -140 0
109 117 -140 0
109 -117 140 0
-109 117 140 0
-112 -137 141 0
-137 -139 141 0
-112 -139 141 0
112 137 -141 0
137 139 -141 0
112 139 -141 0
137 -141 -142 0
112 -141 -142 0
139 -141 -142 0
-137 141 142 0
-112 141 142 0
-139 141 142 0
-112 -137 -139 142 0
112 137 139 -142 0
-116 -138 0
-138 -141 0
-116 -141 0
-138 143 0
-116 143 0
-141 143 0
-116 -138 -141 143 0
116 138 141 -143 0
-65 -109 0
-65 -130 0
65 109 130 0
-69 109 130 0
-69 -109 -130 0
69 -109 130 0
69 109 -130 0
65 -71 0
-71 -132 0
-65 71 132 0
-65 -73 132 0
65 -73 -132 0
65 73 132 0
-65 73 -132 0
71 -75 0
-75 -134 0
-71 75 134 0
-71 -77 134 0
71 -77 -134 0
71 77 134 0
-71 77 -134 0
75 -79 0
-79 -110 0
-75 79 110 0
-75 -81 110 0
75 -81 -110 0
75 81 110 0
-75 81 -110 0
79 -83 0
-83 -140 0
-79 83 140 0
-79 -85 140 0
79 -85 -140 0
79 85 140 0
-79 85 -140 0
83 -87 0
-87 -142 0
-83 87 142 0
-83 -89 142 0
83 -89 -142 0
83 89 142 0
-83 89 -142 0
87 -91 0
-91 -143 0
-87 91 143 0
-87 -93 143 0
87 -93 -143 0
87 93 143 0
-87 93 -143 0
-41 91 0
41 -91 0
-39 -91 0
39 91 0
-37 41 0
37 -41 0
-16 -41 0
16 41 0
-15 37 0
15 -37 0
-14 -37 0
14 37 0
-13 15 0
13 -15 0
-12 -15 0
12 15 0
-11 13 0
11 -13 0
-10 -13 0
10 13 0
-9 11 0
9 -11 0
-8 -11 0
8 11 0
-7 67 0
-7 109 0
7 -67 -109 0
-67 -109 0
67 109 0
6 -63 -130 0
6 -7 -63 0
6 -7 -130 0
-6 63 130 0
-6 7 63 0
-6 7 130 0
-6 63 0
-6 130 0
-6 7 0
7 63 130 0
5 -82 -132 0
5 -6 -82 0
5 -6 -132 0
-5 82 132 0
-5 6 82 0
-5 6 132 0
-5 82 0
-5 132 0
-5 6 0
6 82 132 0
4 -86 -134 0
4 -5 -86 0
4 -5 -134 0
-4 86 134 0
-4 5 86 0
-4 5 134 0
-4 86 0
-4 134 0
-4 5 0
5 86 134 0
3 -90 -110 0
3 -4 -90 0
3 -4 -110 0
-3 90 110 0
-3 4 90 0
-3 4 110 0
3 -90 0
3 -110 0
3 -4 0
-4 -90 -110 0
2 -42 -140 0
2 -3 -42 0
2 -3 -140 0
-2 42 140 0
-2 3 42 0
-2 3 140 0
2 -42 0
2 -140 0
2 -3 0
-3 -42 -140 0
1 -55 -142 0
1 -2 -55 0
1 -2 -142 0
-1 55 142 0
-1 2 55 0
-1 2 142 0
1 -55 0
1 -142 0
1 -2 0
-2 -55 -142 0
-32 -143 0
-1 -32 0
-1 -143 0
1 32 143 0
